; benchmark generated from python API
(set-info :status unknown)
(declare-fun L_1 () Real)
(declare-fun S_1 () Real)
(declare-fun A_1 () Real)
(declare-fun L_0 () Real)
(declare-fun S_0 () Real)
(declare-fun A_0 () Real)
(declare-fun S_3 () Real)
(declare-fun A_3 () Real)
(declare-fun L_3 () Real)
(declare-fun Q_4 () Real)
(declare-fun S_4 () Real)
(declare-fun A_4 () Real)
(declare-fun A_2 () Real)
(declare-fun L_2 () Real)
(declare-fun S_2 () Real)
(assert
 (let (($x34 (>= L_0 0.0)))
 (let ((?x11002 (* (/ 2.0 3.0) S_0)))
 (let ((?x11014 (* (/ 1.0 3.0) S_3)))
 (let ((?x429 (* (- 1.0) A_1)))
 (let ((?x11032 (+ ?x429 ?x11014 ?x11002 L_1)))
 (let (($x106410 (<= 0.0 ?x11032)))
 (let ((?x959 (* (- 2.0) A_2)))
 (let ((?x962 (* 2.0 L_2)))
 (let ((?x2200 (* 2.0 Q_4)))
 (let ((?x520 (* (- 1.0) L_1)))
 (let (($x61 (= L_2 L_1)))
 (let (($x125272 (or $x61 (<= (+ ?x520 A_1 ?x2200 ?x962 ?x959 S_3) 0.0) (not $x106410))))
 (let ((?x507 (* (- 1.0) L_2)))
 (let ((?x683 (+ L_1 ?x507)))
 (let (($x100971 (<= 0.0 ?x683)))
 (let ((?x425 (* (- 1.0) A_2)))
 (let ((?x421 (* (- 1.0) A_3)))
 (let ((?x413 (* (- 1.0) Q_4)))
 (let ((?x1329 (+ A_4 ?x413 ?x421 ?x425 A_1 ?x520 L_2)))
 (let (($x87610 (<= 0.0 ?x1329)))
 (let ((?x468 (* (- 1.0) S_1)))
 (let ((?x979 (* 3.0 A_2)))
 (let ((?x982 (* (- 3.0) L_2)))
 (let ((?x4807 (* (- 3.0) Q_4)))
 (let ((?x4796 (* (- 2.0) S_4)))
 (let (($x30341 (<= (+ ?x4796 ?x4807 ?x982 ?x979 ?x468) 0.0)))
 (let ((?x402 (* (- 1.0) S_4)))
 (let ((?x494 (* (- 1.0) L_3)))
 (let (($x1317 (<= (+ A_4 ?x494 ?x402 ?x413 ?x425 A_1 ?x520 L_2) 0.0)))
 (let ((?x5279 (* (/ 1.0 2.0) S_0)))
 (let ((?x5276 (* (/ 3.0 2.0) Q_4)))
 (let (($x125164 (or $x61 $x106410 (<= (+ ?x5276 (* (/ 3.0 2.0) L_2) (* (- (/ 3.0 2.0)) A_2) S_3 ?x5279) 0.0))))
 (let (($x121059 (<= (+ L_3 ?x421 A_2 ?x507 (* (/ 1.0 2.0) S_1) (* (- (/ 1.0 2.0)) S_0)) (- 5.0))))
 (let (($x71 (= L_3 L_2)))
 (let (($x125041 (or $x71 (<= (+ L_3 ?x421 (* 2.0 S_1) (* (- 1.0) S_0)) (- 5.0)) $x121059)))
 (let (($x122638 (<= (+ L_3 ?x421 (* (- (/ 1.0 2.0)) A_0) (* (/ 3.0 2.0) S_2) (* (/ 1.0 2.0) L_0)) (- 5.0))))
 (let (($x119986 (<= (+ L_3 ?x421 (* (- 2.0) A_0) (* 3.0 S_1) (* 2.0 L_0)) (- 5.0))))
 (let (($x281930 (or $x71 (<= (+ L_3 ?x421 A_2 (* (- 1.0) A_0) ?x507 S_1 L_0) (- 5.0)) $x119986)))
 (let ((?x988 (* (- 1.0) S_0)))
 (let ((?x1272 (* 4.0 A_2)))
 (let ((?x1286 (* (- 4.0) L_2)))
 (let ((?x4428 (* (- 4.0) Q_4)))
 (let ((?x7327 (* (- 3.0) S_4)))
 (let (($x28920 (<= (+ ?x7327 ?x4428 ?x1286 ?x1272 ?x988) 0.0)))
 (let (($x124751 (or $x71 (<= (+ L_3 ?x421 (* (/ 4.0 3.0) S_2) (* (- (/ 1.0 3.0)) S_0)) (- 5.0)))))
 (let (($x29776 (<= (+ (* (- 2.0) Q_4) A_3 A_1 (* (- 2.0) S_3) ?x520 ?x494) 0.0)))
 (let (($x8168 (<= (+ A_2 (* (- 1.0) S_3) ?x507) 0.0)))
 (let (($x6928 (<= (+ A_4 ?x413 ?x421 A_1 (* (- 1.0) S_3) ?x520) 0.0)))
 (let ((?x446 (* (- 1.0) S_3)))
 (let ((?x5284 (* (- (/ 1.0 2.0)) Q_4)))
 (let ((?x5270 (* (- (/ 1.0 2.0)) L_3)))
 (let ((?x5282 (* (/ 1.0 2.0) A_4)))
 (let (($x5296 (<= (+ ?x5282 ?x5270 ?x5284 ?x446 ?x5279) 0.0)))
 (let (($x1507 (<= (+ ?x413 A_1 (* (- 1.0) S_2) ?x520) 0.0)))
 (let ((?x973 (* (- 3.0) A_2)))
 (let ((?x976 (* 3.0 L_2)))
 (let ((?x2413 (* 3.0 Q_4)))
 (let ((?x960 (* 2.0 A_1)))
 (let ((?x961 (* (- 2.0) L_1)))
 (let (($x289238 (or $x61 (<= (+ S_4 ?x2200 ?x962 ?x959 S_0) 0.0) (<= (+ ?x961 ?x960 ?x2413 S_4 ?x976 ?x973) 0.0))))
 (let (($x42747 (<= (+ (* (- 2.0) L_3) (* 2.0 A_3) ?x959 ?x446 S_0 ?x962) 0.0)))
 (let (($x288933 (or $x61 (<= (+ ?x494 A_3 ?x425 A_1 ?x446 ?x520 L_2) 0.0) $x42747)))
 (let (($x124344 (or $x61 (<= (+ ?x425 (* (/ 3.0 2.0) S_1) (* (- (/ 1.0 2.0)) S_0) L_2) (- 5.0)))))
 (let (($x290584 (or $x61 $x42747 (not (<= 0.0 (+ ?x494 A_3 ?x959 A_1 ?x520 ?x962))))))
 (let (($x105823 (<= (+ A_4 ?x494 ?x961 ?x413 ?x960 ?x973 ?x976) (- 15.0))))
 (let (($x104862 (<= (+ ?x5282 ?x5270 ?x5284 ?x425 ?x5279 L_2) (- 5.0))))
 (let (($x1122 (>= Q_4 5.0)))
 (let ((?x12080 (* (- (/ 1.0 2.0)) A_2)))
 (let ((?x12278 (* (/ 1.0 2.0) L_2)))
 (let ((?x5299 (* (/ 1.0 2.0) Q_4)))
 (let (($x283617 (or $x61 (<= (+ S_4 Q_4 L_3 ?x421 L_2 ?x425 A_1 ?x520) 0.0) (<= (+ S_4 ?x5299 L_3 ?x421 ?x12278 ?x12080 ?x5279) 0.0))))
 (let (($x29424 (<= (+ ?x4796 ?x4807 ?x982 ?x979 (* (- 1.0) A_0) L_0) 0.0)))
 (let ((?x965 (* 2.0 A_2)))
 (let ((?x968 (* (- 2.0) L_2)))
 (let ((?x2390 (* (- 2.0) Q_4)))
 (let (($x40967 (<= (+ L_1 ?x429 ?x2390 ?x402 ?x968 ?x965) 0.0)))
 (let (($x103924 (not $x87610)))
 (let (($x29101 (<= (+ ?x402 ?x2390 ?x968 ?x965 (* (- 1.0) S_2)) 0.0)))
 (let (($x1553 (<= (+ ?x494 ?x402 A_3) 0.0)))
 (let (($x110257 (<= (+ A_2 ?x507 Q_4 ?x421 L_3) (- 5.0))))
 (let ((?x9396 (* (/ 1.0 3.0) L_3)))
 (let ((?x11003 (* (/ 1.0 3.0) S_0)))
 (let ((?x9397 (* (/ 1.0 3.0) Q_4)))
 (let ((?x107040 (+ ?x429 S_0 L_1)))
 (let (($x107041 (<= (- 5.0) ?x107040)))
 (let (($x29849 (<= (+ (* (- (/ 2.0 3.0)) Q_4) (* (/ 2.0 3.0) A_3) ?x446 ?x11003 (* (- (/ 2.0 3.0)) L_3)) 0.0)))
 (let (($x23388 (<= (+ ?x520 A_1 ?x413 A_3 (* (- 2.0) S_3) ?x494) 0.0)))
 (let (($x9564 (<= (+ A_4 ?x494 ?x961 ?x413 ?x960 (* (- 3.0) S_3)) 0.0)))
 (let ((?x12844 (* (- (/ 1.0 2.0)) L_0)))
 (let ((?x12838 (* (/ 1.0 2.0) A_1)))
 (let ((?x12843 (* (- (/ 3.0 2.0)) A_3)))
 (let ((?x5298 (* (/ 1.0 2.0) L_3)))
 (let (($x123872 (or $x61 (<= (+ ?x425 (* (/ 1.0 2.0) S_3) (* (/ 1.0 2.0) S_1) L_2) (- 5.0)))))
 (let (($x109758 (<= (+ ?x402 ?x413 ?x507 A_2) (- 5.0))))
 (let ((?x9375 (* (/ 2.0 3.0) S_1)))
 (let ((?x9381 (* (- (/ 4.0 3.0)) Q_4)))
 (let ((?x9386 (* (- (/ 4.0 3.0)) L_3)))
 (let ((?x9357 (* (/ 4.0 3.0) A_4)))
 (let (($x9369 (<= (+ ?x9357 ?x9386 ?x4796 ?x9381 ?x9375) 0.0)))
 (let (($x103572 (<= 0.0 (+ ?x413 ?x421 ?x965 ?x429 L_1 ?x968 L_3))))
 (let (($x31169 (<= (+ Q_4 (* 2.0 A_3) ?x973 S_0 ?x976 (* (- 2.0) L_3)) 0.0)))
 (let (($x104651 (<= 0.0 (+ ?x494 L_2))))
 (let (($x31186 (<= (+ ?x413 (* (- 2.0) A_3) ?x979 ?x468 ?x982 (* 2.0 L_3)) 0.0)))
 (let (($x4574 (<= (+ A_4 L_3 (* (- 2.0) A_3) A_2 ?x507) 0.0)))
 (let ((?x967 (* 2.0 L_1)))
 (let ((?x4921 (* 2.0 S_0)))
 (let ((?x966 (* (- 2.0) A_1)))
 (let (($x51 (= L_1 L_0)))
 (let (($x112405 (<= (+ (* 2.0 A_4) ?x2390 (* (- 2.0) A_3) ?x425 S_0 L_2) (- 5.0))))
 (let (($x288892 (or $x71 (<= (+ ?x5299 (* (- (/ 1.0 2.0)) A_3) (* (/ 1.0 2.0) S_1) ?x5298) (- 5.0)) $x110257)))
 (let (($x107042 (not $x107041)))
 (let (($x16906 (<= (+ (* (- 2.0) A_4) ?x2200 (* 2.0 A_3) A_2 ?x507 ?x988) 0.0)))
 (let (($x38806 (<= (+ S_4 ?x2390 ?x960 (* (- 3.0) S_3) ?x961) 0.0)))
 (let (($x17930 (<= (+ (* 2.0 A_4) ?x2390 (* (- 2.0) A_3) ?x446 S_0) 0.0)))
 (let (($x114126 (<= 0.0 (+ ?x4796 ?x979 (* (- 1.0) A_0) ?x982 L_0))))
 (let (($x56701 (<= (+ ?x402 A_2 ?x507 ?x413 A_1 (* (- 1.0) A_0) ?x520 L_0) 0.0)))
 (let (($x16977 (<= (+ A_4 ?x494 ?x4796 ?x413 A_2 ?x507) 0.0)))
 (let (($x37714 (<= (+ ?x4807 (* 3.0 A_1) (* (- 2.0) S_3) ?x988 (* (- 3.0) L_1)) 0.0)))
 (let (($x9394 (<= (+ (* (/ 1.0 3.0) A_4) (* (- (/ 1.0 3.0)) L_3) (* (- (/ 1.0 3.0)) Q_4) ?x446 ?x9375) 0.0)))
 (let (($x116371 (<= (+ (* 2.0 L_3) (* (- 2.0) A_3) ?x965 A_1 ?x968 ?x988 ?x520) (- 5.0))))
 (let ((?x1265 (* (- 5.0) L_1)))
 (let ((?x4816 (* (- 2.0) S_0)))
 (let ((?x1268 (* 5.0 A_1)))
 (let ((?x4552 (* (- 5.0) A_3)))
 (let ((?x4528 (* 3.0 L_3)))
 (let ((?x2400 (* 2.0 A_4)))
 (let (($x6756 (<= (+ ?x2400 ?x4528 ?x2390 ?x4552 ?x1268 ?x4816 ?x1265) 0.0)))
 (let (($x1449 (not (<= Q_4 0.0))))
 (let (($x80789 (<= (+ (* 2.0 L_3) (* (- 2.0) A_3) ?x960 S_3 ?x988 ?x961) 0.0)))
 (let (($x24783 (<= (+ L_3 ?x421 A_2 A_1 ?x520 ?x468 ?x507) 0.0)))
 (let ((?x975 (* (- 3.0) L_1)))
 (let ((?x5400 (* (- 2.0) S_1)))
 (let ((?x4736 (* 2.0 S_3)))
 (let ((?x974 (* 3.0 A_1)))
 (let ((?x4525 (* (- 3.0) A_3)))
 (let (($x24789 (<= (+ L_3 ?x421 A_2 A_1 (* (- 1.0) A_0) ?x520 ?x507 L_0) 0.0)))
 (let (($x60586 (<= (+ L_3 ?x402 ?x421 ?x965 A_1 ?x968 ?x988 ?x520) 0.0)))
 (let (($x37712 (<= (+ ?x2390 ?x960 ?x446 ?x468 ?x961) 0.0)))
 (let ((?x11622 (* (/ 1.0 4.0) S_0)))
 (let ((?x11628 (* (- (/ 3.0 4.0)) Q_4)))
 (let ((?x11641 (* (- (/ 3.0 4.0)) L_3)))
 (let ((?x11624 (* (/ 3.0 4.0) A_4)))
 (let (($x11621 (<= (+ ?x11624 ?x11641 ?x402 ?x11628 ?x11622) 0.0)))
 (let (($x61404 (<= (+ ?x965 ?x968 ?x2200 (* (- 2.0) A_3) S_1 ?x988 (* 2.0 L_3)) 0.0)))
 (let (($x90692 (or $x71 (<= (+ Q_4 ?x421 (* 2.0 S_1) ?x988 L_3) 0.0) $x61404)))
 (let (($x80816 (<= (+ ?x4528 ?x4525 ?x974 (* (- 2.0) A_0) ?x4736 ?x975 (* 2.0 L_0)) 0.0)))
 (let ((?x10754 (* (- (/ 3.0 2.0)) L_1)))
 (let ((?x12824 (* (/ 3.0 2.0) A_1)))
 (let ((?x5260 (* (/ 3.0 2.0) L_3)))
 (let (($x45251 (<= (+ ?x5260 ?x12843 ?x12824 S_2 ?x988 ?x10754) 0.0)))
 (let (($x6157 (<= (+ ?x5282 ?x5270 ?x402 ?x5284 (* (/ 1.0 2.0) S_2)) 0.0)))
 (let (($x1440 (<= (+ ?x402 ?x413 ?x965 ?x429 L_1 ?x968) 0.0)))
 (let (($x116332 (<= (+ (* (- (/ 1.0 2.0)) S_4) ?x5284 ?x12838 (* (- (/ 1.0 2.0)) L_1)) (- 5.0))))
 (let (($x106372 (<= (+ ?x402 A_2 ?x507) (- 5.0))))
 (let (($x37726 (<= (+ ?x2390 ?x960 (* (- 1.0) A_0) ?x446 ?x961 L_0) 0.0)))
 (let (($x114127 (not $x114126)))
 (let ((?x1011 (* (- 1.0) A_0)))
 (let ((?x5285 (* (- (/ 3.0 2.0)) Q_4)))
 (let ((?x10604 (* (- (/ 1.0 2.0)) S_4)))
 (let (($x42655 (<= (+ ?x10604 ?x5285 ?x12824 ?x1011 ?x10754 L_0) 0.0)))
 (let ((?x1288 (* 4.0 L_1)))
 (let ((?x7315 (* 3.0 S_0)))
 (let ((?x1287 (* (- 4.0) A_1)))
 (let ((?x4396 (* 4.0 Q_4)))
 (let (($x104754 (<= 0.0 (+ A_4 (* 2.0 L_3) ?x413 ?x4525 ?x979 ?x429 L_1 ?x982))))
 (let (($x104755 (not $x104754)))
 (let (($x125679 (or $x31186 (not (= (+ L_1 ?x429 ?x413 ?x421 ?x965 ?x968 L_3) 0.0)) $x104651 $x104755)))
 (let ((?x4541 (* 2.0 L_3)))
 (let ((?x2399 (* (- 2.0) A_3)))
 (let (($x33944 (<= (+ ?x965 ?x968 Q_4 ?x2399 A_1 ?x988 ?x520 ?x4541) 0.0)))
 (let ((?x11166 (* (/ 1.0 2.0) L_1)))
 (let ((?x12842 (* (- (/ 1.0 2.0)) A_1)))
 (let ((?x12850 (* (/ 1.0 2.0) A_3)))
 (let (($x134273 (or $x51 (<= (+ ?x5270 ?x12850 (* (- (/ 3.0 2.0)) A_1) S_0 (* (/ 3.0 2.0) L_1)) (- 5.0)))))
 (let (($x280260 (or $x61 (<= (+ ?x425 S_0 L_2) (- 15.0)) (<= (+ ?x425 A_1 ?x520 L_2) (- 10.0)))))
 (let (($x290693 (or $x61 (<= (+ ?x494 A_3 ?x959 A_1 ?x520 ?x962) (- 5.0)) (<= (+ (* (- 2.0) L_3) (* 2.0 A_3) ?x973 S_0 ?x976) (- 5.0)))))
 (let (($x44019 (<= (+ (* (- 3.0) L_3) ?x402 (* 3.0 A_3) ?x973 S_0 ?x976) 0.0)))
 (let (($x24774 (<= (+ (* (- 2.0) L_3) ?x402 (* 2.0 A_3) ?x959 A_1 ?x520 ?x962) 0.0)))
 (let (($x4575 (not $x4574)))
 (let ((?x4554 (* (- 5.0) L_2)))
 (let ((?x4553 (* 5.0 A_2)))
 (let ((?x4522 (* 4.0 L_3)))
 (let (($x4556 (<= (+ A_4 ?x4522 ?x413 ?x4552 ?x4553 ?x988 ?x4554) 0.0)))
 (let (($x42666 (<= (+ (* (- 1.0) A_4) ?x4528 Q_4 ?x979 ?x982 ?x2399 ?x960 ?x4816 ?x961) 0.0)))
 (let (($x813 (= Q_4 0.0)))
 (let (($x289569 (or $x71 (<= (+ ?x4541 ?x2399 ?x965 S_3 (* (- 1.0) S_2) ?x968) 0.0))))
 (let (($x107771 (<= (+ (* (- 1.0) A_4) L_3 Q_4 A_2 ?x507) (- 10.0))))
 (let (($x100907 (<= (+ (* (- 1.0) A_4) Q_4 A_3) (- 5.0))))
 (let (($x121459 (or $x813 $x100907 (<= (+ (* (- (/ 1.0 2.0)) A_4) ?x5298 ?x5299 ?x5279) (- 10.0)) (<= (+ (* (- 1.0) A_4) L_3 ?x520 Q_4 A_1) (- 15.0)) $x107771)))
 (let (($x4441 (<= (+ ?x2400 (* (- 2.0) L_3) ?x7327 ?x520 ?x2390 A_1) 0.0)))
 (let (($x111365 (<= (+ ?x413 A_1 ?x446 ?x520) (- 5.0))))
 (let (($x2179 (<= (+ A_4 ?x413 ?x421 ?x446 S_1) 0.0)))
 (let (($x56698 (<= (+ ?x4796 ?x965 ?x968 ?x413 A_1 ?x988 ?x520) 0.0)))
 (let (($x43600 (<= (+ ?x402 ?x2390 ?x960 ?x988 ?x961) 0.0)))
 (let (($x121271 (or $x1553 (<= (+ (* (- (/ 1.0 3.0)) S_4) ?x11003) (- 5.0)) $x106372 (<= (+ ?x10604 ?x12838 (* (- (/ 1.0 2.0)) L_1)) (- 5.0)))))
 (let ((?x4784 (* (- 2.0) S_3)))
 (let ((?x2201 (* 2.0 A_3)))
 (let ((?x4515 (* (- 2.0) L_3)))
 (let (($x124955 (or $x51 $x8168 (<= (+ ?x494 A_3 ?x429 ?x4784 (* 2.0 S_1) L_1) 0.0))))
 (let (($x61991 (<= (+ ?x4541 ?x2399 ?x965 ?x960 ?x968 (* (- 1.0) S_2) ?x988 ?x961) 0.0)))
 (let ((?x12864 (* 2.0 L_0)))
 (let ((?x4777 (* 2.0 S_1)))
 (let ((?x17010 (* (- 2.0) A_0)))
 (let (($x107764 (<= (+ A_4 L_3 ?x413 A_2 ?x507 ?x2399) (- 10.0))))
 (let (($x285124 (or $x71 $x1122 (<= (+ ?x11624 (* (/ 1.0 4.0) L_3) ?x11628 ?x421 ?x11622) (- 5.0)) $x107764 (<= (+ ?x2400 L_3 ?x520 ?x2390 A_1 ?x4525) (- 15.0)))))
 (let (($x290273 (or $x51 $x813 (<= (+ (* (- 1.0) A_4) Q_4 A_3 ?x429 S_2 L_1) 0.0))))
 (let (($x120995 (or $x71 (<= (+ L_3 ?x421 (* (/ 3.0 2.0) S_2) (* (- (/ 1.0 2.0)) S_1)) (- 5.0)))))
 (let (($x120990 (or $x61 (<= (+ ?x425 (* (/ 2.0 3.0) S_3) ?x11003 L_2) (- 5.0)) (<= (+ ?x959 A_1 S_3 ?x520 ?x962) (- 10.0)))))
 (let (($x114762 (<= 0.0 (+ (* (/ 1.0 2.0) S_4) ?x5284 L_2 ?x425 ?x12838 (* (- (/ 1.0 2.0)) L_1)))))
 (let (($x37866 (<= (+ ?x10604 ?x5285 ?x12824 ?x468 ?x10754) 0.0)))
 (let (($x284708 (or $x51 $x813 (<= (+ (* (- 1.0) A_4) ?x494 Q_4 ?x2201 ?x966 S_0 ?x967) 0.0))))
 (let ((?x13926 (* (/ 3.0 2.0) L_1)))
 (let ((?x12858 (* (- (/ 3.0 2.0)) A_1)))
 (let ((?x12829 (* (/ 3.0 2.0) A_3)))
 (let ((?x5290 (* (- (/ 3.0 2.0)) L_3)))
 (let (($x104656 (not $x104651)))
 (let (($x284862 (or $x51 $x104656 (<= (+ ?x12850 ?x12858 S_0 ?x13926 (* (- (/ 1.0 2.0)) L_2)) (- 5.0)))))
 (let (($x283068 (or $x51 (<= (+ ?x5270 ?x12850 ?x12842 (* (- 1.0) S_2) S_0 ?x11166) 0.0))))
 (let (($x21129 (<= (+ ?x5299 (* (- (/ 1.0 2.0)) A_3) ?x1011 (* (/ 3.0 2.0) S_1) ?x5298 L_0) 0.0)))
 (let (($x82357 (or $x71 $x21129 (<= (+ A_2 ?x507 Q_4 ?x421 ?x1011 S_1 L_3 L_0) 0.0))))
 (let (($x81873 (or $x1553 (not (<= (+ ?x959 ?x962 (* 3.0 S_1) ?x988) 0.0)) (<= (+ ?x402 ?x4777 ?x988) 0.0))))
 (let (($x125766 (or $x8168 (<= (+ S_4 L_3 ?x421 (* (- (/ 1.0 2.0)) S_3) ?x5279) 0.0) (<= (+ S_4 L_3 ?x421 A_1 ?x446 ?x520) 0.0))))
 (let (($x5218 (<= (+ ?x959 ?x962 (* 3.0 S_1) ?x988) 0.0)))
 (let (($x284354 (or $x71 (<= (+ L_3 ?x421 A_1 S_3 (* (- 1.0) S_2) ?x520) 0.0))))
 (let (($x119973 (or $x51 $x71 (<= (+ ?x5298 (* (- (/ 1.0 2.0)) A_3) ?x12842 S_2 ?x11166) (- 5.0)))))
 (let (($x42662 (<= (+ A_4 L_3 ?x413 A_2 ?x507 ?x2399 ?x960 (* (- 2.0) S_2) ?x961) 0.0)))
 (let (($x285365 (or $x71 (<= (+ ?x2200 ?x2399 ?x1011 (* 3.0 S_2) ?x4541 L_0) 0.0))))
 (let (($x37693 (<= (+ S_4 ?x413 L_3 ?x421 A_1 ?x446 ?x520) 0.0)))
 (let (($x78621 (or $x813 (<= (+ (* (- 4.0) A_4) ?x4522 ?x4396 (* 5.0 S_3) ?x988) 0.0))))
 (let (($x104359 (not $x103572)))
 (let (($x59316 (= (+ L_1 ?x429 ?x413 ?x421 ?x965 ?x968 L_3) 0.0)))
 (let (($x6940 (<= (+ ?x2400 L_3 ?x2390 ?x4525 ?x974 (* (- 2.0) S_2) ?x975) 0.0)))
 (let (($x9993 (<= (+ ?x520 A_1 (* (- 1.0) S_2)) 0.0)))
 (let (($x20336 (<= (+ A_4 ?x494 ?x413 ?x425 L_2 (* (- 2.0) S_2) ?x4921) 0.0)))
 (let (($x289652 (or $x9993 $x20336 (<= (+ ?x425 L_2 ?x413 A_3 (* (- 1.0) S_2) S_0 ?x494) 0.0))))
 (let (($x73286 (or $x813 (<= (+ (* (- 3.0) A_4) ?x2413 (* 3.0 A_3) S_2 ?x988) 0.0) (<= (+ (* (- (/ 3.0 2.0)) A_4) ?x5260 ?x5276 (* (/ 5.0 2.0) S_2) ?x988) 0.0))))
 (let (($x29018 (<= (+ S_4 A_2 ?x507 ?x2200 ?x2399 ?x4541) 0.0)))
 (let (($x133649 (or $x71 (<= (+ S_4 ?x5276 ?x12843 (* (/ 1.0 2.0) S_1) ?x5260) 0.0) $x29018)))
 (let (($x2203 (<= (+ (* (- 2.0) A_4) ?x2200 ?x2201 S_1 ?x988) 0.0)))
 (let (($x72707 (or $x813 $x2203 $x5218 (<= (+ (* (- 1.0) A_4) L_3 Q_4 A_2 ?x507 S_1 ?x988) 0.0))))
 (let (($x282832 (or $x71 $x29018 (<= (+ (* 2.0 S_4) ?x2200 ?x4525 A_1 ?x520 ?x4528) 0.0))))
 (let (($x280233 (or $x8168 (<= (+ S_4 ?x4784 S_0) 0.0) (<= (+ ?x961 ?x960 S_4 (* (- 3.0) S_3)) 0.0))))
 (let (($x286578 (or $x71 (<= (+ L_1 ?x429 Q_4 ?x421 (* 2.0 S_2) L_3) 0.0))))
 (let (($x1251 (not $x51)))
 (let (($x284897 (or $x71 $x1251 (<= (+ L_3 ?x421 A_1 S_2 ?x468 (* (- 1.0) L_0)) 0.0))))
 (let (($x127877 (or $x51 (<= (+ ?x2413 (* (- 3.0) A_1) S_3 ?x4921 (* 3.0 L_1)) 0.0))))
 (let (($x31331 (<= (+ ?x5284 (* (- (/ 1.0 2.0)) L_2) (* (/ 1.0 2.0) A_2) (* (- 1.0) S_2) ?x5279) 0.0)))
 (let (($x5304 (<= (+ ?x5282 ?x5270 ?x5284 (* (- 2.0) S_2) (* (/ 3.0 2.0) S_0)) 0.0)))
 (let (($x16899 (<= (+ A_4 ?x413 ?x421 (* (- 1.0) S_2) S_0) 0.0)))
 (let (($x56716 (<= (+ ?x402 A_2 ?x507 ?x413 A_1 ?x468 ?x520) 0.0)))
 (let (($x55448 (<= (+ L_3 ?x421 A_1 S_3 (* (- 1.0) S_2) (* (- 1.0) L_0)) 0.0)))
 (let (($x115999 (or $x813 $x100907 (<= (+ (* (- (/ 1.0 2.0)) A_4) ?x5298 ?x5299 (* (/ 1.0 2.0) S_2)) (- 5.0)))))
 (let (($x29762 (<= (+ S_4 (* (/ 4.0 3.0) Q_4) (* (- (/ 4.0 3.0)) A_3) ?x11003 (* (/ 4.0 3.0) L_3)) 0.0)))
 (let (($x281523 (or $x71 (<= (+ ?x520 A_1 ?x2413 (* 2.0 S_4) ?x4525 ?x4528) 0.0) $x29018 $x29762)))
 (let (($x10003 (<= (+ (* (- 1.0) A_4) L_3 ?x967 Q_4 ?x966 (* 3.0 S_2)) 0.0)))
 (let (($x2427 (<= (+ (* (- 1.0) A_4) L_3 Q_4 A_3 ?x429 S_2 L_1 ?x507) 0.0)))
 (let (($x57513 (or $x1553 (<= (+ ?x425 ?x1011 L_2 ?x4777 L_0) 0.0) (<= (+ ?x402 A_2 ?x507 ?x1011 S_1 L_0) 0.0))))
 (let (($x17012 (<= (+ (* (- 1.0) A_4) L_3 Q_4 A_2 ?x507 ?x17010 ?x4777 ?x12864) 0.0)))
 (let (($x9432 (<= (+ (* (- (/ 1.0 3.0)) A_4) ?x9396 ?x9397 ?x1011 (* (/ 4.0 3.0) S_1) L_0) 0.0)))
 (let (($x61449 (or $x813 (<= (+ (* (- 1.0) A_4) Q_4 A_3 ?x1011 S_1 L_0) 0.0) $x9432 $x17012)))
 (let (($x42671 (<= (+ (* (- 1.0) A_4) ?x494 Q_4 ?x425 L_2 ?x2201 ?x966 ?x4777 ?x967) 0.0)))
 (let (($x282759 (or $x51 $x1122 (<= (+ ?x5282 ?x5270 ?x5284 ?x12080 ?x12278 ?x429 S_0 L_1) (- 5.0)))))
 (let (($x21119 (<= (+ ?x402 ?x413 A_3 ?x494) 0.0)))
 (let (($x281899 (or (<= (+ ?x2400 ?x494 ?x4796 ?x2390 ?x421 A_1 ?x520) 0.0) $x21119 $x87610 $x104651)))
 (let (($x283121 (or $x71 (<= (+ ?x4522 (* (- 4.0) A_3) ?x1272 S_3 ?x988 ?x1286) 0.0))))
 (let (($x23877 (<= (+ (* (- 2.0) A_4) ?x4541 ?x2413 ?x429 (* 3.0 S_3) L_1) 0.0)))
 (let (($x292329 (or $x71 $x1251 $x1449 (<= (+ A_4 ?x5270 ?x402 ?x413 (* (- (/ 1.0 2.0)) A_3) ?x12838 ?x12844) 0.0) $x87610)))
 (let (($x282921 (or $x51 $x71 (<= (+ ?x2200 ?x421 ?x429 (* 2.0 S_2) L_1 L_3) 0.0))))
 (let (($x5250 (<= (+ ?x402 ?x979 (* (- 3.0) A_1) S_0 (* 3.0 L_1) ?x982) 0.0)))
 (let (($x293129 (or $x51 $x813 (<= (+ (* (- 1.0) A_4) ?x2200 A_3 ?x429 S_2 L_1) 0.0) (not (<= 0.0 (+ Q_4 L_1 ?x421 ?x429 (* 2.0 S_2) L_3))))))
 (let (($x108949 (<= 0.0 (+ Q_4 L_1 ?x421 ?x429 (* 2.0 S_2) L_3))))
 (let (($x7357 (<= (+ (* (- (/ 1.0 2.0)) A_4) ?x5298 ?x5276 ?x429 (* (/ 3.0 2.0) S_2) L_1) 0.0)))
 (let (($x105168 (<= (+ (* (- (/ 1.0 2.0)) A_4) ?x5298 ?x5299 ?x429 (* (/ 3.0 2.0) S_2) L_1) (- 5.0))))
 (let (($x289836 (or $x51 $x813 (<= (+ (* (- 1.0) A_4) Q_4 A_3 ?x429 S_2 L_1) (- 5.0)) $x105168)))
 (let ((?x11650 (* (/ 3.0 4.0) S_0)))
 (let ((?x11649 (* (- (/ 1.0 4.0)) Q_4)))
 (let ((?x11648 (* (- (/ 1.0 4.0)) L_3)))
 (let ((?x11647 (* (/ 1.0 4.0) A_4)))
 (let ((?x11661 (+ ?x11647 ?x11648 ?x11649 ?x429 ?x11650 L_1)))
 (let (($x106012 (<= (+ (* (- (/ 2.0 3.0)) A_4) (* (/ 2.0 3.0) L_3) (* (/ 2.0 3.0) Q_4) ?x9375) (- 10.0))))
 (let ((?x9392 (* (- (/ 1.0 3.0)) Q_4)))
 (let ((?x9368 (* (- (/ 1.0 3.0)) L_3)))
 (let ((?x9356 (* (/ 1.0 3.0) A_4)))
 (let ((?x9414 (+ ?x9356 ?x9368 ?x9392 ?x425 ?x9375 L_2)))
 (let ((?x9427 (* (/ 2.0 3.0) Q_4)))
 (let ((?x9416 (* (/ 2.0 3.0) L_3)))
 (let ((?x9426 (* (- (/ 2.0 3.0)) A_4)))
 (let (($x287317 (or $x813 $x2203 (<= (+ ?x9426 ?x9416 ?x9427 (* (/ 5.0 3.0) S_1) ?x988) 0.0) (<= 0.0 ?x9414))))
 (let (($x281853 (or $x71 (<= (+ A_4 L_3 ?x413 ?x2399 ?x960 ?x468 ?x961) 0.0) $x24783 (<= (+ ?x2390 ?x421 ?x974 ?x5400 ?x975 L_3) 0.0))))
 (let (($x287014 (or $x71 (<= (+ A_4 L_3 ?x413 ?x2399 ?x960 ?x1011 ?x961 L_0) 0.0) $x24789 (<= (+ ?x2390 ?x12864 ?x421 ?x974 ?x17010 ?x975 L_3) 0.0))))
 (let (($x283278 (or $x71 (<= (+ ?x4541 ?x2399 ?x960 ?x17010 (* 2.0 S_2) ?x961 ?x12864) 0.0))))
 (let (($x127907 (or $x51 $x813 (<= (+ (* (- 2.0) A_4) L_3 ?x2200 A_3 ?x429 ?x4736 L_1) 0.0))))
 (let (($x107185 (<= 0.0 (+ ?x429 (* (/ 1.0 2.0) S_3) ?x5279 L_1))))
 (let ((?x990 (* 4.0 L_2)))
 (let ((?x989 (* (- 4.0) L_1)))
 (let ((?x987 (* 4.0 A_1)))
 (let ((?x986 (* (- 4.0) A_2)))
 (let (($x42615 (or $x813 (<= (+ (* (- 3.0) A_4) ?x4528 ?x2413 (* 4.0 S_3) ?x468) 0.0))))
 (let (($x283322 (or $x61 (<= (+ ?x959 ?x960 S_3 (* (- 1.0) S_2) ?x961 ?x962) 0.0))))
 (let (($x129917 (or $x5304 $x9993 (<= (+ ?x9392 (* (/ 1.0 3.0) A_3) (* (- 1.0) S_2) ?x11002 ?x9368) 0.0))))
 (let (($x106448 (<= (+ (* (/ 2.0 3.0) A_4) ?x9396 (* (- (/ 2.0 3.0)) Q_4) ?x421 (* (/ 1.0 3.0) S_1)) (- 5.0))))
 (let (($x4521 (<= (+ (* (- 1.0) A_4) ?x4515 Q_4 (* 3.0 A_3) ?x973 S_1 ?x976) 0.0)))
 (let (($x9961 (<= (+ (* (- 2.0) A_4) ?x4541 L_1 ?x2200 ?x429 (* 3.0 S_3)) 0.0)))
 (let (($x38730 (or $x813 (<= (+ (* (- 2.0) A_4) ?x2200 ?x2201 S_2 ?x468) 0.0) (<= (+ (* (- 1.0) A_4) L_3 Q_4 (* 2.0 S_2) ?x468) 0.0))))
 (let (($x29770 (<= (+ ?x2200 A_3 (* (- 3.0) A_1) ?x4921 (* 3.0 L_1) ?x494) 0.0)))
 (let (($x379 (<= 0.0 (+ ?x520 L_0))))
 (let (($x129890 (or $x813 (<= (+ (* (- 1.0) A_4) L_3 Q_4 ?x425 L_2 ?x4736) 0.0))))
 (let (($x6181 (<= (+ (* (- 1.0) A_4) L_3 Q_4 ?x1011 (* 2.0 S_2) L_0) 0.0)))
 (let (($x36559 (or $x813 (<= (+ (* (- 2.0) A_4) ?x2200 ?x2201 ?x1011 S_2 L_0) 0.0) $x6181)))
 (let (($x1503 (<= (+ ?x413 A_2 ?x446 ?x507) 0.0)))
 (let (($x127301 (or $x1503 $x9564 (not (<= 0.0 (+ A_4 ?x413 ?x421 ?x429 S_0 L_1))))))
 (let (($x108393 (<= (+ (* (- 2.0) A_4) ?x4541 ?x2200 ?x429 (* 3.0 S_3) L_1) (- 5.0))))
 (let (($x128614 (or $x71 $x4574 (<= (+ ?x413 ?x421 ?x965 (* (- 1.0) S_2) ?x968 L_3) 0.0))))
 (let (($x134041 (or $x61 $x813 (<= (+ (* (- 1.0) A_4) L_3 Q_4 ?x425 ?x4736 L_2) (- 5.0)))))
 (let (($x108837 (or $x61 $x813 (<= (+ (* (- 1.0) A_4) L_3 ?x2200 ?x425 ?x4736 L_2) 0.0))))
 (let (($x127161 (or $x4575 (= (+ A_4 ?x4541 L_1 ?x413 ?x429 ?x4525 ?x979 ?x982) 0.0) $x104651 $x104755)))
 (let (($x289451 (or $x61 $x813 (<= (+ (* (- 1.0) A_4) ?x494 Q_4 ?x2201 ?x959 S_2 ?x962) 0.0))))
 (let (($x281112 (or (<= (+ A_4 ?x4541 ?x413 ?x4525 ?x979 (* (- 1.0) S_2) ?x982) 0.0) $x4575 $x104651)))
 (let (($x127073 (or (<= (+ A_4 ?x4528 ?x413 (* (- 4.0) A_3) ?x1272 ?x468 ?x1286) 0.0) $x4575 $x104651)))
 (let (($x4572 (<= (+ A_4 ?x4528 ?x413 (* (- 4.0) A_3) ?x1272 ?x1011 ?x1286 L_0) 0.0)))
 (let ((?x4538 (* 4.0 A_3)))
 (let ((?x4510 (* (- 3.0) L_3)))
 (let ((?x417 (* (- 1.0) A_4)))
 (let (($x283460 (or $x61 $x813 (<= (+ ?x417 ?x4510 Q_4 ?x4538 ?x986 S_0 ?x990) 0.0) $x104754)))
 (let (($x104324 (<= 0.0 (+ Q_4 A_3 ?x417 A_2 ?x429 L_1 ?x507))))
 (let (($x4834 (<= (+ (* (- 3.0) A_4) ?x4528 ?x2413 ?x1011 (* 4.0 S_3) L_0) 0.0)))
 (let ((?x981 (* 3.0 L_1)))
 (let ((?x980 (* (- 3.0) A_1)))
 (let ((?x2206 (* 3.0 A_3)))
 (let ((?x2199 (* (- 2.0) A_4)))
 (let (($x4785 (<= (+ (* (- 4.0) A_4) ?x4522 ?x4396 (* 6.0 S_3) (* (- 2.0) S_2)) 0.0)))
 (let (($x127512 (or $x51 (<= (+ A_2 ?x429 (* (- 1.0) S_2) S_0 L_1 ?x507) 0.0))))
 (let (($x129838 (or $x51 (<= (+ A_4 ?x494 ?x973 ?x960 ?x961 ?x976) 0.0) $x1440 $x1553 $x100971)))
 (let (($x129580 (or $x51 $x813 (<= (+ ?x417 L_3 Q_4 ?x965 ?x966 S_2 ?x967 ?x968) 0.0) $x87610)))
 (let (($x1511 (<= (+ ?x413 ?x425 ?x960 ?x468 ?x961 L_2) 0.0)))
 (let (($x130687 (or $x61 (<= (+ A_4 ?x494 ?x413 ?x986 ?x987 ?x468 ?x989 ?x990) 0.0) $x1511)))
 (let (($x131946 (or $x51 $x813 (not (<= (+ ?x494 A_3 ?x959 ?x960 ?x468 ?x961 ?x962) 0.0)) $x87610)))
 (let (($x1337 (<= (+ A_4 ?x494 ?x413 ?x986 ?x987 ?x1011 ?x989 ?x990 L_0) 0.0)))
 (let (($x1055 (<= (+ ?x413 ?x1011 L_0 ?x425 ?x960 ?x961 L_2) 0.0)))
 (let (($x1515 (<= (+ ?x413 ?x959 ?x974 ?x988 ?x975 ?x962) 0.0)))
 (let ((?x1266 (* 5.0 L_2)))
 (let ((?x1292 (* (- 5.0) A_2)))
 (let (($x287950 (or $x61 (<= (+ A_4 ?x494 ?x413 ?x1292 ?x1268 ?x988 ?x1265 ?x1266) 0.0) $x1515)))
 (let (($x128101 (or $x51 $x813 (<= (+ ?x417 L_3 Q_4 ?x1272 ?x1287 S_0 ?x1288 ?x1286) 0.0) $x87610)))
 (let (($x1430 (<= (+ ?x494 A_3 ?x959 ?x960 ?x468 ?x961 ?x962) 0.0)))
 (let (($x284404 (or $x51 $x813 (<= (+ ?x417 L_3 Q_4 ?x979 ?x980 S_1 ?x981 ?x982) 0.0) $x1430)))
 (let (($x1313 (<= (+ A_4 ?x494 ?x413 ?x959 ?x960 ?x446 ?x961 ?x962) 0.0)))
 (let (($x286350 (or $x51 $x813 (<= (+ ?x417 L_3 Q_4 A_2 ?x429 S_3 L_1 ?x507) 0.0))))
 (let (($x1308 (<= (+ A_4 ?x494 ?x413 ?x973 ?x974 (* (- 1.0) S_2) ?x975 ?x976) 0.0)))
 (let (($x286187 (or $x61 $x1507 (= (+ ?x417 Q_4 A_3 A_2 ?x429 L_1 ?x507) 0.0) $x103924)))
 (let (($x321 (or $x1449 $x813)))
 (let (($x108 (>= S_1 S_0)))
 (let (($x111 (>= S_2 S_1)))
 (let (($x114 (>= S_3 S_2)))
 (let (($x117 (>= S_4 S_3)))
 (let (($x119 (>= A_1 A_0)))
 (let (($x120 (>= A_2 A_1)))
 (let (($x121 (>= A_3 A_2)))
 (let (($x122 (>= A_4 A_3)))
 (and $x122 $x121 $x120 $x119 $x117 $x114 $x111 $x108 (or (not $x379) $x51) (or $x61 (<= (+ ?x425 A_1 ?x520 L_2) (- 5.0))) (or $x51 $x61 $x71 (= (+ L_3 ?x421 ?x965 ?x429 L_1 ?x968) 0.0)) $x321 (or $x61 $x1122 $x1337) (or $x61 $x1122 $x1313) (or $x61 (<= (+ A_4 ?x494 ?x413 ?x973 ?x960 ?x961 ?x976) (- 5.0)) $x1122) (or $x51 (<= (+ A_2 ?x429 ?x446 S_1 L_1 ?x507) 0.0)) (or $x61 (<= (+ ?x425 S_2 L_2) (- 5.0))) (or $x61 (not $x100971)) (or $x51 (<= (+ ?x429 S_1 L_1) (- 5.0))) (or $x61 (<= (+ ?x973 ?x974 S_2 ?x988 ?x975 ?x976) 0.0)) (or $x61 (<= 0.0 (+ ?x421 ?x965 ?x429 L_1 ?x507)) (not $x71)) (or $x61 (<= (+ ?x959 ?x960 S_1 ?x988 ?x961 ?x962) 0.0)) (or $x51 (<= (+ Q_4 ?x429 S_1 L_1) 0.0)) (or $x61 (<= (+ Q_4 ?x425 S_2 L_2) 0.0)) $x286187 (or $x1308 $x1507 $x100971) (or $x51 $x1317 $x1440 $x87610 $x100971) (or $x61 (<= (+ ?x425 A_1 ?x1011 S_1 ?x520 L_2 L_0) 0.0)) (or $x61 (<= (+ ?x973 ?x974 S_3 ?x468 ?x975 ?x976) 0.0)) $x286350 (or $x61 (<= (+ S_4 Q_4 ?x973 ?x960 ?x961 ?x976) 0.0)) (or $x61 (<= (+ Q_4 ?x959 A_1 S_3 ?x520 ?x962) 0.0)) (or $x51 (<= (+ Q_4 A_2 ?x966 S_0 ?x967 ?x507) 0.0)) (or $x1313 $x1503 $x100971) $x284404 $x128101 $x287950 (or $x61 $x1055 $x1337) $x131946 $x130687 (or $x61 (<= (+ ?x959 ?x960 S_2 ?x468 ?x961 ?x962) 0.0)) $x129580 $x129838 (or $x61 $x1055 $x104324) (or (<= (+ L_3 S_4 ?x421 ?x425 A_1 ?x520 L_2) 0.0) $x100971) (or $x61 $x1515 $x104324) (or $x61 (<= (+ ?x959 ?x960 ?x1011 S_2 ?x961 ?x962 L_0) 0.0)) (or $x1503 $x100971 $x104324) (or $x61 $x1511 $x104324) (or $x51 (<= (+ ?x965 ?x966 ?x446 S_0 ?x967 ?x968) 0.0)) (or $x51 (<= (+ A_2 ?x966 S_0 ?x967 ?x507) (- 5.0))) $x127512 (or $x71 $x104656) (or $x71 (<= (+ L_3 ?x421 A_2 ?x507) (- 5.0))) (or $x1122 $x1553 $x6157) (or $x71 $x1122 (<= (+ A_4 L_3 ?x413 ?x2399 A_2 ?x507) (- 5.0))) (or $x1503 $x1553 $x9369) (or $x813 $x4785) (or $x51 $x71 (<= 0.0 (+ ?x494 A_3 ?x959 A_1 ?x520 ?x962))) (or $x61 (<= (+ ?x959 A_1 S_3 ?x520 ?x962) (- 5.0))) (or $x9993 (<= (+ (* (- 1.0) S_2) S_0) (- 5.0))) (<= (+ ?x425 S_2 L_2) 0.0) (or $x71 $x1122 (<= (+ ?x5282 ?x5298 ?x5284 ?x421 (* (/ 1.0 2.0) S_2)) (- 5.0))) (or $x71 $x1503 (<= (+ A_4 L_3 ?x413 ?x2399 ?x965 ?x446 ?x968) 0.0)) (or $x1503 $x1553 $x6157) (or $x51 $x813 (<= (+ ?x2199 ?x494 ?x2200 ?x2206 ?x980 ?x4777 ?x981) 0.0)) (or $x71 $x1122 $x87610 (<= (+ ?x2400 L_3 ?x2390 ?x4525 A_1 ?x520) (- 10.0))) (or $x71 (<= (+ L_3 ?x421 S_3) (- 5.0))) (or $x813 $x4834) (or $x813 (<= (+ ?x417 L_3 Q_4 S_3) (- 5.0))) (or $x61 $x1122 $x104324) (or $x51 (<= ?x107040 (- 10.0))) (or $x8168 (<= (+ ?x446 S_1) (- 5.0))) (or $x1317 $x1503 $x100971) (or $x1503 $x1553 $x4441 $x11621) (or $x61 $x813 (<= (+ ?x417 Q_4 A_3 ?x425 S_3 L_2) 0.0)) $x283460 (or (<= (+ A_4 ?x402 ?x413 ?x421 A_2 ?x507) 0.0) $x4575 $x104651) (or $x4572 $x4575 $x104651) $x127073 $x281112 $x289451 $x127161 (or $x1553 (<= (+ ?x10604 ?x12842 ?x11166 S_2) 0.0)) (or $x61 (<= (+ ?x425 S_1 L_2) (- 10.0))) $x108837 (or $x71 (<= (+ Q_4 ?x421 S_3 L_3) 0.0)) (or $x61 (<= (+ ?x494 A_3 ?x959 A_1 ?x520 ?x962) 0.0)) (or $x6157 $x21119) (or $x9369 $x16977 $x21119) (or $x1122 $x1553 $x9369 $x16977) (or $x1122 $x1553 $x4441 $x11621 $x16977) (or $x4441 $x11621 $x16977 $x21119) (or $x8168 (<= (+ A_1 ?x446 ?x520) (- 5.0)) $x107042) (or $x1507 $x5304) (or $x1507 $x20336) $x134041 (or $x4574 $x21119 $x104651) (or $x71 (<= (+ S_4 Q_4 ?x2399 A_2 ?x507 ?x4541) 0.0)) (or $x1553 $x6157 $x30341) $x128614 (or $x51 $x813 $x108393) (or $x1503 $x9394) $x127301 (or $x71 $x813 $x10003) (or $x51 $x813 $x2427 $x104656) $x36559 (or $x71 (<= (+ L_3 ?x421 A_2 ?x429 S_2 L_1 ?x507) 0.0)) (or $x71 (<= (+ L_3 ?x421 ?x429 L_1 (* 2.0 S_2)) (- 5.0))) (or $x71 (<= (+ S_4 ?x2200 ?x2399 S_2 ?x4541) 0.0)) $x129890 (or $x379 $x29770) $x38730 (or $x813 $x9961) (or $x1553 $x6157 $x29424) (or $x1553 (<= (+ ?x4796 ?x1011 (* 3.0 S_2) L_0) 0.0)) (or $x1553 (<= (+ ?x402 (* (/ 3.0 2.0) S_2) (* (- (/ 1.0 2.0)) S_1)) 0.0)) (or $x1553 $x9993 $x11621 $x29101) (or $x1553 $x4441 $x11621 $x30341) (or $x1553 $x4441 $x11621 $x29424) (or $x61 $x813 $x4521) (or $x71 $x1122 $x106448 $x107764) $x129917 (or $x9993 (<= (+ ?x11014 (* (- 1.0) S_2) ?x11002) 0.0)) (or $x61 $x1122 (<= ?x9414 (- 5.0))) (or $x1122 $x9993 $x16899) (or $x1507 $x16899) (or $x1507 $x1553 $x11621 $x16977) $x283322 $x42615 (or $x1503 $x2179) (or $x51 $x1122 (<= (+ A_4 ?x413 ?x421 ?x429 S_0 L_1) (- 5.0))) (or $x51 (<= (+ ?x429 (* (/ 1.0 2.0) S_2) ?x5279 L_1) (- 5.0))) (or $x61 $x1122 $x1317) (or $x61 (<= (+ ?x986 ?x987 S_3 ?x988 ?x989 ?x990) 0.0)) (or $x61 (<= (+ ?x973 ?x974 ?x1011 S_3 ?x975 ?x976 L_0) 0.0)) (or $x71 $x1122 $x103924 $x107764) (or $x1122 $x5304 $x9993) (or $x1122 $x9993 $x20336) (or $x1122 $x5296 $x8168 (<= 0.0 ?x11661)) (or $x1122 $x8168 $x9564 (not $x107185)) (or $x1122 $x8168 (not (<= 0.0 ?x11661)) $x107185) $x127907 $x283278 $x287014 $x281853 $x287317 (or $x1503 $x5296 $x9564) (or $x813 $x100907 $x106012 $x107771) (or $x61 (<= (+ ?x494 A_3 ?x959 S_1 ?x962) (- 5.0))) (or $x61 (<= (+ ?x4515 ?x402 ?x2201 ?x959 S_1 ?x962) 0.0)) (or $x51 $x1553 (<= (+ ?x402 ?x965 ?x966 S_1 ?x967 ?x968) 0.0)) (or $x51 $x1553 (<= (+ ?x402 A_2 ?x429 S_2 L_1 ?x507) 0.0)) (or $x1553 (<= (+ ?x7327 (* 4.0 S_2) ?x988) 0.0)) (or $x1553 (<= (+ ?x402 S_2) (- 5.0))) (or $x51 $x1122 (<= ?x11661 (- 5.0))) $x289836 (or $x51 $x813 $x7357 $x108949) $x293129 (or $x71 $x1449 $x4556) (or $x8168 (<= (+ ?x4784 (* 3.0 S_1) ?x988) 0.0)) (or $x1553 $x8168 $x9369 $x29776) (or $x1122 $x2179 $x8168) (or $x379 $x1553 $x100971 $x103924 $x104359) (or $x51 $x1553 $x5250) (or $x71 (<= (+ L_3 ?x421 A_2 ?x1011 S_1 ?x507 L_0) 0.0)) $x282921 (or $x71 (<= (+ ?x2413 ?x4525 (* 4.0 S_2) ?x988 ?x4528) 0.0)) (or $x71 $x8168 $x45251) (or $x1553 $x4441 $x8168 $x11621 $x29776) $x292329 (or $x51 $x813 $x23877) (or $x71 (<= (+ ?x4528 ?x4525 ?x979 ?x1011 S_3 ?x982 L_0) 0.0)) (or $x71 (<= (+ ?x4528 ?x4525 ?x979 S_2 ?x988 ?x982) 0.0)) $x283121 (or $x71 (<= (+ ?x4541 ?x2399 ?x965 ?x1011 S_2 ?x968 L_0) 0.0)) (or $x71 (<= (+ ?x4541 ?x2399 ?x965 S_1 ?x988 ?x968) 0.0)) (or $x61 (<= (+ ?x494 A_3 ?x425 ?x446 S_1 L_2) 0.0)) (or $x71 (<= (+ ?x4541 ?x2399 ?x965 S_2 ?x468 ?x968) 0.0)) (or $x51 (<= (+ ?x402 A_3 ?x429 S_1 L_1 ?x507) 0.0) $x104656) (or $x51 (<= (+ ?x494 ?x402 A_3 ?x429 S_1 L_1) 0.0)) (or $x16977 $x21119 $x103924 $x104651) $x281899 (or $x1507 $x5296 $x8168) $x282759 (or $x71 (<= (+ ?x2200 ?x2399 (* 3.0 S_2) ?x468 ?x4541) 0.0)) (or $x51 (<= (+ ?x425 L_2 A_3 ?x429 S_0 L_1 ?x494) 0.0)) (or $x51 $x813 $x42671) $x61449 (or $x71 (<= (+ ?x4541 ?x2399 ?x965 ?x429 S_3 L_1 ?x968) 0.0)) (or $x1553 (<= (+ ?x10604 ?x1011 (* (/ 3.0 2.0) S_1) L_0) 0.0) $x114127) $x57513 (or $x8168 (<= (+ ?x1011 ?x446 ?x4777 L_0) 0.0)) (or $x8168 (<= (+ S_4 L_3 ?x421 ?x446 S_1) 0.0)) (or $x813 $x2427 $x10003) (or $x1553 $x4441 $x11621 $x40967) (or $x9993 (<= (+ ?x425 S_3 L_2 (* (- 1.0) S_2) S_0) 0.0)) (or $x5296 $x8168 $x38806) (or $x9993 (<= (+ S_4 (* (- 4.0) S_2) ?x7315) 0.0)) $x281523 $x115999 (or $x51 (<= (+ Q_4 ?x429 S_0 L_1) (- 5.0))) (or $x71 $x1449 $x6928 $x8168) (or $x1553 $x6157 $x8168 $x37712) (or $x1553 $x6157 $x8168 $x37714) (or $x8168 $x9394 (<= (+ ?x5284 ?x12850 ?x446 (* (/ 1.0 2.0) S_1) ?x5270) 0.0)) (or $x8168 (<= (+ S_4 (* (- 3.0) S_3) ?x4777) 0.0)) (or $x71 $x1251 $x55448) (or $x71 $x1449 $x6940 $x42662) (or $x1553 $x11621 $x16977 $x42655 $x56701) (or $x1553 $x11621 $x16977 $x56716 (not $x114762)) (or $x61 $x1317 $x21119) (or $x1553 $x6157 $x37866 $x56716) (or $x1553 $x6157 $x42655 $x56701) (or $x1122 $x8168 $x9394) (or $x1553 $x6157 $x40967) (or $x9993 (<= (+ S_4 L_3 ?x421 (* (- 1.0) S_2) S_0) 0.0)) (or $x9993 $x16899 $x31331) (or $x5304 $x9993 $x31331) (or $x1553 $x9369 $x29101) (or $x1553 $x6157 $x109758) (or $x1553 $x4441 $x11621 $x109758) (or $x1122 $x6928 $x8168 $x17930) $x127877 (or $x1553 (<= (+ ?x10604 (* (/ 1.0 2.0) S_1)) (- 5.0)) $x106372) (or $x61 $x1449 $x104862 $x105823) $x284897 (or $x1507 $x1553 $x9369 $x16977) (or $x71 (<= (+ ?x4541 ?x2399 ?x960 (* 2.0 S_2) ?x5400 ?x961) 0.0)) $x286578 $x280233 $x282832 $x72707 (or $x1503 $x6928 $x17930) (or $x8168 $x17930 $x37726) (or $x8168 $x17930 $x37693) (or $x1553 $x9369 $x40967) (or $x8168 $x17930 $x37712) $x133649 $x73286 (or $x1553 $x8168 $x9369 $x37726) (or $x61 (<= (+ Q_4 L_2 ?x425 ?x1011 ?x4777 L_0) 0.0)) (or $x61 (<= (+ ?x2200 ?x962 ?x959 S_3 S_1) 0.0)) (or $x1553 $x11621 $x16977 $x111365) (or $x1553 $x8168 $x11621 $x37726) (or $x5296 $x8168 $x37712) (or $x5296 $x8168 $x37726) $x289652 (or $x51 (<= (+ S_4 Q_4 L_3 ?x421 ?x429 S_0 L_1) 0.0)) (or $x1553 $x9369 $x29424) (or $x9993 (<= (+ S_4 ?x425 L_2 (* (- 2.0) S_2) ?x4921) 0.0)) (or $x61 (<= (+ Q_4 A_3 ?x959 S_1 ?x962 ?x494) 0.0)) (or $x1507 $x6940 $x87610 $x104651) (or $x8168 $x9394 $x38806) (or $x8168 $x9394 $x29776) (or $x51 (<= ?x11032 (- 5.0))) (or $x61 (<= (+ ?x425 ?x1011 ?x4777 L_2 L_0) (- 5.0))) (or $x5296 $x8168 $x37714) (or $x8168 (<= (+ (* (- (/ 1.0 2.0)) S_3) ?x5279) (- 5.0)) $x107041) (or $x51 (<= (+ ?x2200 ?x966 S_2 S_0 ?x967) 0.0)) (or $x71 $x4574 $x59316 $x104359) (or $x8168 $x17930 $x111365) (or $x5296 $x8168 $x111365) $x78621 (or $x1553 $x6157 $x43600 $x56698) (or $x1553 $x6157 $x28920) (or $x61 (<= (+ ?x2200 ?x962 ?x959 (* 3.0 S_1) ?x988) 0.0)) (or $x2179 $x8168 $x37714) (or $x2179 $x8168 $x37693) $x285365 (or $x71 $x1507 $x42662 $x103924) (or $x71 $x1507 $x6756 $x61991) $x119973 (or $x71 $x24783 $x45251) (or $x71 $x1449 $x6756 $x24783) (or $x71 $x45251 $x116371) (or $x71 (<= (+ L_3 ?x421 A_1 S_1 ?x988 ?x520) 0.0) $x116371) (or $x1553 $x6157 $x111365) (or $x1553 $x8168 $x9369 $x37714) $x284354 (or $x51 $x1553 (<= (+ ?x10604 ?x5299 ?x12842 S_2 ?x11166) 0.0)) (or $x1553 $x5218 (<= (+ ?x4796 ?x965 ?x968 S_1 ?x988) 0.0)) (or $x61 $x1122 (<= (+ A_4 ?x413 ?x421 ?x425 S_1 L_2) (- 5.0))) (or $x1507 $x8168 $x17930) $x125766 $x81873 (or $x71 $x1449 $x6756 $x8168) $x82357 (or $x2179 $x8168 $x37726) (or $x8168 $x9394 $x37726) $x283068 $x284862 (or $x51 (<= (+ ?x5290 ?x402 ?x12829 ?x12858 S_0 ?x13926) 0.0)) $x284708 (or $x1553 $x6157 $x116332) (or $x1553 $x9369 $x106372 $x116332) (or $x1553 $x29424 $x100971 $x103924) (or $x61 (<= (+ ?x494 ?x402 A_3 ?x425 S_2 L_2) 0.0)) (or $x1553 $x9369 $x16977 $x111365) (or $x1553 $x11621 $x37866 $x114762) $x120990 $x120995 $x290273 (or $x6928 $x8168 $x29776 $x104651) $x285124 (or $x71 $x24789 (<= (+ L_3 ?x421 A_1 S_1 ?x988 ?x520) 0.0)) (or $x71 $x24789 (<= (+ L_3 ?x421 A_1 ?x17010 ?x4777 ?x520 ?x12864) 0.0)) (or $x1507 $x8168 $x9394) (or $x71 $x60586 (<= (+ L_3 ?x421 A_1 S_1 ?x988 ?x520) 0.0)) (or $x71 $x60586 $x80789) (or $x71 $x61991 (<= (+ L_3 ?x421 A_1 S_1 ?x988 ?x520) 0.0)) (or $x71 $x61991 $x80789) $x124955 (or $x51 (<= (+ ?x4515 ?x2201 ?x966 ?x4784 ?x4921 ?x967) 0.0)) (or $x51 (<= (+ ?x425 ?x429 S_3 L_2 S_0 L_1) (- 5.0))) $x121271 (or $x1553 $x11621 $x43600 $x56698) (or $x1553 $x9369 $x16977 $x43600 $x56698) (or $x2179 $x8168 $x111365) (or $x8168 $x17930 $x37714) (or $x1553 $x8168 $x11621 $x37714) (or $x379 $x5296 $x8168 $x29776) (or $x1553 $x4441 $x11621 $x28920) $x121459 (or $x8168 $x9394 $x111365) (or $x51 $x1553 (<= (+ ?x402 ?x429 (* 2.0 S_2) L_1) (- 5.0))) $x289569 (or $x4574 (<= (+ ?x413 L_0 ?x2399 ?x979 ?x1011 ?x982 ?x4541) 0.0) $x104651) (or $x4574 (<= (+ ?x413 ?x4525 ?x1272 ?x988 ?x1286 ?x4528) 0.0) $x104651) (or $x61 (<= (+ S_4 ?x2413 ?x976 ?x973 ?x4777) 0.0)) (or $x813 $x6756 (not $x33944) $x42666 $x104651) (or $x1553 $x6157 $x8168 $x29776) (or $x4556 $x4575 $x104651) (or $x61 $x24774 $x44019) (or $x71 (<= (+ ?x4528 ?x4525 ?x979 S_3 ?x468 ?x982) 0.0)) $x290693 $x280260 (or $x61 $x107041 (<= (+ ?x5299 ?x12278 ?x12080 ?x5279) (- 5.0))) (or $x1507 $x2179 $x8168) $x134273 (or $x51 $x1553 (<= (+ ?x5270 ?x402 ?x12850 ?x12842 S_2 ?x11166) 0.0)) (or $x71 (<= (+ L_3 ?x421 A_1 ?x520) (- 10.0))) (or $x71 $x24789 $x45251) (or $x71 $x6756 (<= (+ ?x413 ?x421 ?x960 ?x988 ?x961 L_3) 0.0) $x33944) (or $x2179 $x8168 $x38806) (or $x71 $x8168 (<= (+ L_3 ?x421 A_1 S_1 ?x988 ?x520) 0.0)) $x125679 (or $x51 (<= (+ S_4 ?x4396 ?x1287 ?x7315 ?x1288) 0.0)) (or $x1553 $x9369 $x42655 $x114127) (or $x1553 $x6157 $x8168 $x37726) (or $x1553 $x11621 $x106372 $x116332) (or $x51 $x1440 $x1553 $x11621) (or $x51 $x1440 $x1553 $x6157) (or $x51 $x1440 $x1553 $x9369) (or $x1553 $x9369 $x28920) (or $x71 $x45251 $x60586) (or $x71 $x24789 $x80816) (or $x71 $x24789 $x80789) (or $x71 $x80789 $x116371) $x90692 (or $x6928 $x8168 $x17930 $x29776) (or $x1553 $x8168 $x11621 $x37712) (or $x71 $x1449 $x6756 $x60586) (or $x71 $x1449 $x6756 $x24789) (or $x71 $x24783 (<= (+ ?x4528 ?x4525 ?x974 ?x4736 ?x5400 ?x975) 0.0)) (or $x71 $x24783 $x80789) (or $x71 $x1449 $x6756 $x116371) (or $x8168 $x9394 $x37714) (or $x1553 $x9369 $x16977 $x56701 $x114126) (or $x51 (<= (+ ?x425 L_2 Q_4 ?x429 S_3 S_0 L_1) 0.0)) (or $x8168 $x17930 $x38806) (or $x2179 $x8168 $x29776) (or $x8168 $x9564 (not $x16906) $x23388 $x29849) (or $x71 $x107042 (<= (+ ?x520 A_1 Q_4 ?x421 L_3) (- 10.0)) $x110257) $x288892 (or $x61 $x1122 (<= ?x1329 (- 5.0)) $x112405) (or $x51 (<= (+ S_4 ?x425 L_2 ?x2200 ?x966 ?x4921 ?x967) 0.0)) (or $x71 (<= (+ Q_4 ?x421 S_2 L_3) (- 5.0))) (or $x61 $x107042 (<= (+ ?x520 A_1 Q_4 L_2 ?x425) (- 5.0))) (or $x4574 $x31186 $x104651) (or $x31169 $x100971 $x103572) (or $x1553 $x9369 $x109758) (or $x61 (<= (+ S_4 Q_4 L_3 ?x421 L_2 ?x425 S_1) 0.0)) $x123872 (or $x5296 $x8168 (<= (+ A_4 ?x5298 ?x12843 ?x12838 ?x12844) 0.0) $x23388 $x29849) (or $x5296 $x8168 $x9564 $x23388 $x29849) (or $x71 $x107041 (<= (+ ?x9397 (* (- (/ 1.0 3.0)) A_3) ?x11003 ?x9396) (- 5.0)) $x110257) (or $x1317 $x29101 $x87610 $x100971) (or $x1553 $x29101 $x100971 $x103924) (or $x1553 $x40967 $x100971 $x103924) (or $x1317 $x40967 $x87610 $x100971) (or $x1317 $x29424 $x87610 $x100971) $x283617 (or $x61 $x1122 $x104862 $x105823) $x290584 $x124344 $x288933 (or $x1553 $x28920 $x100971 $x103924) (or $x1553 $x30341 $x100971 $x103924) (or $x1317 $x100971 $x109758) $x289238 (or $x61 $x1507 (<= 0.0 (+ L_3 ?x421 A_2 ?x507 S_2 ?x988))) (or $x5296 $x6928 $x8168 $x29776) $x124751 (or $x61 (<= (+ Q_4 L_2 ?x425 S_1) (- 5.0))) (or $x1317 $x28920 $x87610 $x100971) $x281930 (or $x71 $x122638) $x125041 $x125164 (or $x1317 $x30341 $x87610 $x100971) $x125272 $x34 (not (>= (+ ?x417 L_3 S_4) 0.0)) (<= (+ ?x417 L_3 S_4 Q_4) 0.0) (<= (+ L_3 ?x421 S_3) 0.0) (<= (+ ?x1011 S_0 L_0) 0.0) (<= (+ ?x429 S_1 L_1) 0.0))))))))))))))))))))))))))))))))))))))))))))))))))))))))))))))))))))))))))))))))))))))))))))))))))))))))))))))))))))))))))))))))))))))))))))))))))))))))))))))))))))))))))))))))))))))))))))))))))))))))))))))))))))))))))))))))))))))))))))))))))))))))))))))))))))))))))))))))))))))))))))))))))))))))))))))))))))))))))))))))))))))))))))))))))))))))))))))))))))))))))
(check-sat)
